(set-logic QF_LIA)
(declare-fun x0 () Int)
(declare-fun x1 () Int)
(declare-fun x2 () Int)
(declare-fun x3 () Int)
(declare-fun x4 () Int)
(declare-fun x5 () Int)
(declare-fun x6 () Int)
(declare-fun x7 () Int)
(declare-fun x8 () Int)
(declare-fun x9 () Int)
(declare-fun A0 () Bool)
(declare-fun A1 () Bool)
(declare-fun A6 () Bool)
(declare-fun A7 () Bool)
(declare-fun A8 () Bool)
(declare-fun A9 () Bool)
(assert (let ((.def_0 (* 1 x7))) (let ((.def_1 (< .def_0 (- 1)))) (let ((.def_2 (not .def_1))) (let ((.def_3 (and .def_2 A8))) (let ((.def_4 (not .def_3))) (let ((.def_5 (* 1 x5))) (let ((.def_6 (< .def_5 (- 1)))) (let ((.def_7 (not .def_6))) (let ((.def_8 (* (- 1) x2))) (let ((.def_9 (+ .def_8 .def_5))) (let ((.def_10 (< .def_9 (- 1)))) (let ((.def_11 (not .def_10))) (let ((.def_12 (and .def_11 .def_7))) (let ((.def_13 (and .def_12 .def_4))) (let ((.def_14 (* (- 1) x6))) (let ((.def_15 (< .def_14 (- 1)))) (let ((.def_16 (not .def_15))) (let ((.def_17 (and .def_16 A8))) (let ((.def_18 (not .def_17))) (let ((.def_19 (* 1 x0))) (let ((.def_20 (+ .def_5 .def_19))) (let ((.def_21 (< .def_20 1))) (let ((.def_22 (* 1 x8))) (let ((.def_23 (+ .def_19 .def_22))) (let ((.def_24 (< .def_23 1))) (let ((.def_25 (or .def_24 .def_21))) (let ((.def_26 (not .def_25))) (let ((.def_27 (or .def_26 .def_18))) (let ((.def_28 (not .def_27))) (let ((.def_29 (or .def_28 .def_13))) (let ((.def_30 (not .def_29))) (let ((.def_31 (* (- 1) x8))) (let ((.def_32 (< .def_31 (- 1)))) (let ((.def_33 (not .def_32))) (let ((.def_34 (not A0))) (let ((.def_35 (= .def_34 .def_33))) (let ((.def_36 (not .def_35))) (let ((.def_37 (* (- 1) x3))) (let ((.def_38 (* (- 1) x9))) (let ((.def_39 (+ .def_38 .def_37))) (let ((.def_40 (< .def_39 1))) (let ((.def_41 (not .def_40))) (let ((.def_42 (and .def_41 A1))) (let ((.def_43 (not .def_42))) (let ((.def_44 (or .def_43 .def_36))) (let ((.def_45 (* (- 1) x7))) (let ((.def_46 (< .def_45 1))) (let ((.def_47 (not .def_46))) (let ((.def_48 (or A9 .def_47))) (let ((.def_49 (not .def_48))) (let ((.def_50 (not A7))) (let ((.def_51 (or .def_50 .def_50))) (let ((.def_52 (or .def_51 .def_49))) (let ((.def_53 (not .def_52))) (let ((.def_54 (and .def_53 .def_44))) (let ((.def_55 (or .def_54 .def_30))) (let ((.def_56 (not .def_55))) (let ((.def_57 (< .def_0 1))) (let ((.def_58 (not .def_57))) (let ((.def_59 (or A1 .def_58))) (let ((.def_60 (* (- 1) x1))) (let ((.def_61 (+ .def_19 .def_60))) (let ((.def_62 (< .def_61 (- 1)))) (let ((.def_63 (and A7 .def_62))) (let ((.def_64 (or .def_63 .def_59))) (let ((.def_65 (not .def_64))) (let ((.def_66 (or A6 A7))) (let ((.def_67 (not A8))) (let ((.def_68 (< .def_5 1))) (let ((.def_69 (and .def_68 .def_67))) (let ((.def_70 (not .def_69))) (let ((.def_71 (or .def_70 .def_66))) (let ((.def_72 (and .def_71 .def_65))) (let ((.def_73 (not .def_72))) (let ((.def_74 (* (- 1) x4))) (let ((.def_75 (* 1 x3))) (let ((.def_76 (+ .def_75 .def_74))) (let ((.def_77 (< .def_76 (- 1)))) (let ((.def_78 (not .def_77))) (let ((.def_79 (< .def_31 1))) (let ((.def_80 (and .def_79 .def_78))) (let ((.def_81 (* 1 x1))) (let ((.def_82 (* 1 x9))) (let ((.def_83 (+ .def_82 .def_81))) (let ((.def_84 (< .def_83 (- 1)))) (let ((.def_85 (not .def_84))) (let ((.def_86 (< .def_14 1))) (let ((.def_87 (not .def_86))) (let ((.def_88 (or .def_87 .def_85))) (let ((.def_89 (and .def_88 .def_80))) (let ((.def_90 (not .def_89))) (let ((.def_91 (+ .def_37 .def_45))) (let ((.def_92 (< .def_91 (- 1)))) (let ((.def_93 (or .def_92 .def_67))) (let ((.def_94 (not .def_93))) (let ((.def_95 (< .def_75 1))) (let ((.def_96 (< .def_22 1))) (let ((.def_97 (or .def_96 .def_95))) (let ((.def_98 (not .def_97))) (let ((.def_99 (and .def_98 .def_94))) (let ((.def_100 (and .def_99 .def_90))) (let ((.def_101 (not .def_100))) (let ((.def_102 (or .def_101 .def_73))) (let ((.def_103 (not .def_102))) (let ((.def_104 (or .def_103 .def_56))) (let ((.def_105 (<= x9 1))) (let ((.def_106 (<= 0 x9))) (let ((.def_107 (<= x8 1))) (let ((.def_108 (<= 0 x8))) (let ((.def_109 (<= x7 1))) (let ((.def_110 (<= 0 x7))) (let ((.def_111 (<= x6 1))) (let ((.def_112 (<= 0 x6))) (let ((.def_113 (<= x5 1))) (let ((.def_114 (<= 0 x5))) (let ((.def_115 (<= x4 1))) (let ((.def_116 (<= 0 x4))) (let ((.def_117 (<= x3 1))) (let ((.def_118 (<= 0 x3))) (let ((.def_119 (<= x2 1))) (let ((.def_120 (<= 0 x2))) (let ((.def_121 (<= x1 1))) (let ((.def_122 (<= 0 x1))) (let ((.def_123 (<= x0 1))) (let ((.def_124 (<= 0 x0))) (let ((.def_125 (and .def_124 .def_123 .def_122 .def_121 .def_120 .def_119 .def_118 .def_117 .def_116 .def_115 .def_114 .def_113 .def_112 .def_111 .def_110 .def_109 .def_108 .def_107 .def_106 .def_105 .def_104))) .def_125)))))))))))))))))))))))))))))))))))))))))))))))))))))))))))))))))))))))))))))))))))))))))))))))))))))))))))))))))))))))))))))))
(check-sat)
